1
612    492    384 0
10
114    73    73 31	132
180    110    95 31	17
257    101    101 25	97
178    148    62 54	24
256    103    98 73	116
182    109    93 146	7
272    88    88 118	78
116    75    75 66	25
62    76    73 139	98
130    130    130 42	129


